
Gurobi 9.5.1 (win64, gurobi_cl) logging started Tue Jun  7 16:48:04 2022

Set parameter Username
Set parameter LogFile to value "gurobi.log"
Academic license - for non-commercial use only - expires 2023-05-04
Using license file c:\gurobi951\gurobi.lic

Gurobi 9.5.1 (win64, gurobi_cl) logging started Tue Jun  7 16:49:03 2022

Set parameter Username
Set parameter LogFile to value "gurobi.log"
Academic license - for non-commercial use only - expires 2023-05-04
Using license file c:\gurobi951\gurobi.lic

Gurobi 9.5.1 (win64, gurobi_cl) logging started Tue Jun  7 18:15:32 2022

Set parameter Username
Set parameter LogFile to value "gurobi.log"
Academic license - for non-commercial use only - expires 2023-05-04
Using license file c:\gurobi951\gurobi.lic

Gurobi 9.5.1 (win64, gurobi_cl) logging started Wed Jun  8 09:26:53 2022

Set parameter Username
Set parameter LogFile to value "gurobi.log"
Academic license - for non-commercial use only - expires 2023-05-04
Using license file c:\gurobi951\gurobi.lic

Gurobi 9.5.1 (win64, gurobi_cl) logging started Wed Jun  8 09:27:14 2022

Set parameter Username
Set parameter LogFile to value "gurobi.log"
Academic license - for non-commercial use only - expires 2023-05-04
Using license file c:\gurobi951\gurobi.lic

Gurobi 9.5.1 (win64, gurobi_cl) logging started Wed Jun  8 09:30:10 2022

Set parameter Username
Set parameter LogFile to value "gurobi.log"
Academic license - for non-commercial use only - expires 2023-05-04
Using license file c:\gurobi951\gurobi.lic

Gurobi 9.5.1 (win64, gurobi_cl) logging started Wed Jun  8 09:31:31 2022

Set parameter Username
Set parameter LogFile to value "gurobi.log"
Academic license - for non-commercial use only - expires 2023-05-04
Using license file c:\gurobi951\gurobi.lic

Gurobi 9.5.1 (win64, gurobi_cl) logging started Wed Jun  8 16:59:28 2022

Set parameter Username
Set parameter LogFile to value "gurobi.log"
Academic license - for non-commercial use only - expires 2023-05-04
Using license file c:\gurobi951\gurobi.lic
